(set-logic HORN)
(set-info :source |
    Benchmark: C_VC
    Output by Princess (http://www.philipp.ruemmer.org/princess.shtml)
|)
(set-info :status sat)
(declare-fun inv_main10 (Int Int Int Int Int Int Int) Bool)
(declare-fun inv_main4 (Int Int Int Int Int Int Int) Bool)
(declare-fun inv_main7 (Int Int Int Int Int Int Int) Bool)
(assert (inv_main4 20000001 0 0 0 0 0 0))
(assert (forall ((var0 Int) (var1 Int) (var2 Int) (var3 Int) (var4 Int) (var5 Int) (var6 Int) (var7 Int)) (or (not (and (inv_main4 var7 var6 var5 var4 var3 var2 var1) (and (<= 0 (+ var7 (* (- 1) var0))) (<= 0 var0)))) (inv_main7 var7 var0 var5 var4 var3 var2 var1))))
(assert (forall ((var0 Int) (var1 Int) (var2 Int) (var3 Int) (var4 Int) (var5 Int) (var6 Int) (var7 Int) (var8 Int)) (or (not (and (inv_main7 var6 var5 var4 var3 var2 var1 var0) (and (and (and (and (and (and (<= 0 (+ (+ 4 (* (- 1) var7)) (- 1))) (<= 0 (+ (+ 4 (* 1 var7)) (- 1)))) (or (not (<= 0 (+ var7 (- 1)))) (<= 0 (+ var1 (- 1))))) (or (not (<= 0 (+ (* (- 1) var7) (- 1)))) (<= 0 (+ (* (- 1) var1) (- 1))))) (= var1 (+ (* 4 var8) var7))) (= var7 0)) (<= 0 (+ (+ var5 (* (- 1) var1)) (- 1)))))) (inv_main7 var6 var5 var4 var3 var2 (+ var1 1) (+ var0 1)))))
(assert (forall ((var0 Int) (var1 Int) (var2 Int) (var3 Int) (var4 Int) (var5 Int) (var6 Int) (var7 Int) (var8 Int) (var9 Int) (var10 Int)) (or (not (and (inv_main7 var6 var5 var4 var3 var2 var1 var0) (and (and (and (and (and (and (<= 0 (+ (+ 3 (* (- 1) var7)) (- 1))) (<= 0 (+ (+ 3 (* 1 var7)) (- 1)))) (or (not (<= 0 (+ var7 (- 1)))) (<= 0 (+ var1 (- 1))))) (or (not (<= 0 (+ (* (- 1) var7) (- 1)))) (<= 0 (+ (* (- 1) var1) (- 1))))) (= var1 (+ (* 3 var8) var7))) (= var7 0)) (and (not (or (not (and (and (and (and (<= 0 (+ (+ 4 (* (- 1) var9)) (- 1))) (<= 0 (+ (+ 4 (* 1 var9)) (- 1)))) (or (not (<= 0 (+ var9 (- 1)))) (<= 0 (+ var1 (- 1))))) (or (not (<= 0 (+ (* (- 1) var9) (- 1)))) (<= 0 (+ (* (- 1) var1) (- 1))))) (= var1 (+ (* 4 var10) var9)))) (= var9 0))) (<= 0 (+ (+ var5 (* (- 1) var1)) (- 1))))))) (inv_main7 var6 var5 (+ var4 1) var3 var2 (+ var1 1) var0))))
(assert (forall ((var0 Int) (var1 Int) (var2 Int) (var3 Int) (var4 Int) (var5 Int) (var6 Int) (var7 Int) (var8 Int) (var9 Int) (var10 Int) (var11 Int) (var12 Int)) (or (not (and (inv_main7 var6 var5 var4 var3 var2 var1 var0) (and (and (and (and (and (and (<= 0 (+ (+ 2 (* (- 1) var7)) (- 1))) (<= 0 (+ (+ 2 (* 1 var7)) (- 1)))) (or (not (<= 0 (+ var7 (- 1)))) (<= 0 (+ var1 (- 1))))) (or (not (<= 0 (+ (* (- 1) var7) (- 1)))) (<= 0 (+ (* (- 1) var1) (- 1))))) (= var1 (+ (* 2 var8) var7))) (= var7 0)) (and (not (or (not (and (and (and (and (<= 0 (+ (+ 3 (* (- 1) var9)) (- 1))) (<= 0 (+ (+ 3 (* 1 var9)) (- 1)))) (or (not (<= 0 (+ var9 (- 1)))) (<= 0 (+ var1 (- 1))))) (or (not (<= 0 (+ (* (- 1) var9) (- 1)))) (<= 0 (+ (* (- 1) var1) (- 1))))) (= var1 (+ (* 3 var10) var9)))) (= var9 0))) (and (not (or (not (and (and (and (and (<= 0 (+ (+ 4 (* (- 1) var11)) (- 1))) (<= 0 (+ (+ 4 (* 1 var11)) (- 1)))) (or (not (<= 0 (+ var11 (- 1)))) (<= 0 (+ var1 (- 1))))) (or (not (<= 0 (+ (* (- 1) var11) (- 1)))) (<= 0 (+ (* (- 1) var1) (- 1))))) (= var1 (+ (* 4 var12) var11)))) (= var11 0))) (<= 0 (+ (+ var5 (* (- 1) var1)) (- 1)))))))) (inv_main7 var6 var5 var4 var3 (+ var2 1) (+ var1 1) var0))))
(assert (forall ((var0 Int) (var1 Int) (var2 Int) (var3 Int) (var4 Int) (var5 Int) (var6 Int) (var7 Int) (var8 Int) (var9 Int) (var10 Int) (var11 Int) (var12 Int)) (or (not (and (inv_main7 var6 var5 var4 var3 var2 var1 var0) (and (not (or (not (and (and (and (and (<= 0 (+ (+ 2 (* (- 1) var7)) (- 1))) (<= 0 (+ (+ 2 (* 1 var7)) (- 1)))) (or (not (<= 0 (+ var7 (- 1)))) (<= 0 (+ var1 (- 1))))) (or (not (<= 0 (+ (* (- 1) var7) (- 1)))) (<= 0 (+ (* (- 1) var1) (- 1))))) (= var1 (+ (* 2 var8) var7)))) (= var7 0))) (and (not (or (not (and (and (and (and (<= 0 (+ (+ 3 (* (- 1) var9)) (- 1))) (<= 0 (+ (+ 3 (* 1 var9)) (- 1)))) (or (not (<= 0 (+ var9 (- 1)))) (<= 0 (+ var1 (- 1))))) (or (not (<= 0 (+ (* (- 1) var9) (- 1)))) (<= 0 (+ (* (- 1) var1) (- 1))))) (= var1 (+ (* 3 var10) var9)))) (= var9 0))) (and (not (or (not (and (and (and (and (<= 0 (+ (+ 4 (* (- 1) var11)) (- 1))) (<= 0 (+ (+ 4 (* 1 var11)) (- 1)))) (or (not (<= 0 (+ var11 (- 1)))) (<= 0 (+ var1 (- 1))))) (or (not (<= 0 (+ (* (- 1) var11) (- 1)))) (<= 0 (+ (* (- 1) var1) (- 1))))) (= var1 (+ (* 4 var12) var11)))) (= var11 0))) (<= 0 (+ (+ var5 (* (- 1) var1)) (- 1)))))))) (inv_main7 var6 var5 var4 (+ var3 1) var2 (+ var1 1) var0))))
(assert (forall ((var0 Int) (var1 Int) (var2 Int) (var3 Int) (var4 Int) (var5 Int) (var6 Int)) (or (not (and (inv_main7 var6 var5 var4 var3 var2 var1 var0) (not (<= 0 (+ (+ var5 (* (- 1) var1)) (- 1)))))) (inv_main10 var6 var5 var4 var3 var2 var1 var0))))
(assert (forall ((var0 Int) (var1 Int) (var2 Int) (var3 Int) (var4 Int) (var5 Int) (var6 Int)) (not (and (inv_main10 var6 var5 var4 var3 var2 var1 var0) (not (= (+ (+ (+ var4 var2) var3) var0) var1))))))
(check-sat)
